unsat
(:added-eqs                       31370
 :arith-eq-adapter                293
 :arith-bound-propagations-lp     136
 :arith-conflicts                 1244
 :arith-cube-calls                1
 :arith-diseq                     589
 :arith-fixed-eqs                 867
 :arith-gcd-calls                 143
 :arith-grobner-calls             144
 :arith-grobner-conflicts         24
 :arith-horner-calls              47
 :arith-horner-cross-nested-forms 3248
 :arith-lower                     12614
 :arith-make-feasible             6691
 :arith-max-columns               874
 :arith-max-rows                  259
 :arith-nla-add-bounds            38
 :arith-nla-lemmas                723
 :arith-nla-propagate-bounds      370
 :arith-nla-propagate-eq          5793
 :arith-nra-calls                 18
 :arith-offset-eqs                19
 :arith-patches                   143
 :arith-patches-success           142
 :arith-upper                     34163
 :binary-propagations             80976
 :conflicts                       578
 :decisions                       66926
 :del-clause                      368
 :elim-unconstrained              25
 :final-checks                    426
 :max-memory                      135.94
 :memory                          50.85
 :minimized-lits                  388
 :mk-bool-var                     2946
 :mk-clause                       1201
 :mk-clause-binary                18504
 :num-allocs                      4709303465.00
 :num-checks                      1
 :propagations                    95636
 :restarts                        5
 :rlimit-count                    14665896
 :sat-backjumps                   16919
 :sat-backtracks                  408
 :sat-conflicts                   17328
 :sat-decisions                   94880
 :sat-del-clause                  221895
 :sat-elim-bool-vars-res          39054
 :sat-elim-clauses                6631
 :sat-elim-literals               9535
 :sat-minimized-lits              244107
 :sat-mk-clause-2ary              126621
 :sat-mk-clause-3ary              69161
 :sat-mk-clause-nary              346465
 :sat-mk-var                      82681
 :sat-probing-assigned            610
 :sat-propagations-2ary           3667665
 :sat-propagations-nary           6838382
 :sat-restarts                    2301
 :sat-scc-elim-binary             1468
 :sat-scc-elim-vars               566
 :sat-subs-resolution             4380
 :sat-subs-resolution-dyn         3289
 :sat-subsumed                    49893
 :sat-units                       7027
 :time                            4.65
 :total-time                      4.67)
